20J6M/DAT/20J6MNNL-2.dat
20 6
28.1349 28.1349
24.0103 24.0103
32.9328 32.9328
14.7172 14.7172
23.4192 23.4192
18.9336 18.9336
25.0884 25.0884
27.1789 27.1789
22.6009 22.6009
29.7343 29.7343
29.7666 29.7666
27.5705 27.5705
28.2256 28.2256
19.189 19.189
23.6918 23.6918
30.8724 30.8724
26.3731 26.3731
21.349 21.349
20.2062 20.2062
22.5524 22.5524
496.5471