20J6M/SOL/20J6MNNL-2.sol
solution status: optimal solution found
objective value:                             82.75785
x#1#2                                               1 	(obj:0)
x#2#2                                               1 	(obj:0)
x#3#6                                               1 	(obj:0)
x#4#6                                               1 	(obj:0)
x#5#2                               0.205705147912824 	(obj:0)
x#5#4                               0.794294852087176 	(obj:0)
x#6#3                                               1 	(obj:0)
x#7#1                                               1 	(obj:0)
x#8#1                                               1 	(obj:0)
x#9#4                                               1 	(obj:0)
x#10#5                                              1 	(obj:0)
x#11#1                              0.166920306652422 	(obj:0)
x#11#5                              0.833079693347578 	(obj:0)
x#12#1                              0.923708311419815 	(obj:0)
x#12#2                             0.0762916885801846 	(obj:0)
x#13#5                                              1 	(obj:0)
x#14#3                                              1 	(obj:0)
x#15#2                                              1 	(obj:0)
x#16#1                            0.00177504826317421 	(obj:0)
x#16#3                              0.715294243401873 	(obj:0)
x#16#6                              0.282930708334953 	(obj:0)
x#17#6                                              1 	(obj:0)
x#18#4                                              1 	(obj:0)
x#19#4                                              1 	(obj:0)
x#20#3                                              1 	(obj:0)
z                                            82.75785 	(obj:1)
